c description: Random 3-CNF over 19 variables and 81 clauses
c generator: CNFgen (0.9.2)
c copyright: (C) 2012-2022 Massimo Lauria <massimo.lauria@uniroma1.it>
c url: https://massimolauria.net/cnfgen
c command line: cnfgen --output CNF_4.28/19_bit_81_847.cnf randkcnf 3 19 81
c
p cnf 19 81
-1 -13 15 0
-1 7 16 0
-10 18 -19 0
-10 15 18 0
-6 -12 -14 0
-7 11 13 0
6 14 18 0
3 4 9 0
1 -16 17 0
-3 7 -17 0
6 -10 -14 0
-1 11 17 0
-1 5 16 0
3 14 -18 0
-7 -13 -15 0
-2 -14 -19 0
-1 -2 19 0
3 -9 -15 0
6 -8 15 0
13 15 17 0
-3 7 19 0
-2 -7 8 0
-1 -8 -16 0
-2 3 -13 0
-11 -18 19 0
-9 -11 12 0
-4 7 -13 0
-2 -7 11 0
-1 4 8 0
5 16 -18 0
9 15 -17 0
-1 7 10 0
-2 10 13 0
-8 -9 11 0
2 -12 17 0
10 15 -16 0
5 17 19 0
-10 -14 -19 0
1 -14 16 0
-4 5 -11 0
9 13 -18 0
5 6 -18 0
-2 8 10 0
-1 -4 14 0
-6 -8 -10 0
-3 15 19 0
-2 5 7 0
14 -15 -18 0
8 -10 -17 0
1 -7 -17 0
3 12 -19 0
10 -14 -18 0
-12 -15 -17 0
-6 -8 17 0
-9 -14 -16 0
-14 18 -19 0
-6 18 19 0
6 7 16 0
-7 12 16 0
-6 -10 12 0
3 -12 15 0
3 -9 -11 0
-5 11 -15 0
8 -9 -15 0
-1 3 5 0
2 8 -15 0
11 15 18 0
7 10 -17 0
-8 -10 16 0
7 -9 15 0
-4 5 -10 0
4 11 19 0
-3 10 11 0
3 -6 11 0
3 -6 19 0
6 -12 -16 0
-10 -15 -17 0
-9 13 14 0
5 -8 14 0
2 -8 14 0
2 -6 17 0
